p cnf 581 1356
1 0
2 0
3 0
4 0
5 0
6 0
7 0
8 0
9 0
10 0
-11 0
-12 0
-13 0
-14 0
-15 0
-16 0
-17 0
-18 0
-19 0
-20 0
1 -21 0
21 -1 0
2 -22 0
22 -2 0
3 -23 0
23 -3 0
4 -24 0
24 -4 0
5 -25 0
25 -5 0
6 -26 0
26 -6 0
7 -27 0
27 -7 0
8 -28 0
28 -8 0
9 -29 0
29 -9 0
10 -30 0
30 -10 0
31 32 0
33 32 0
-31 -33 -32 0
-11 32 -34 0
11 -32 -34 0
34 -32 -11 0
11 32 34 0
-34 0
35 36 0
37 36 0
-35 -37 -36 0
-33 36 -38 0
33 -36 -38 0
38 -36 -33 0
33 36 38 0
-38 0
39 40 0
41 40 0
-39 -41 -40 0
-37 40 -42 0
37 -40 -42 0
42 -40 -37 0
37 40 42 0
-42 0
43 44 0
45 44 0
-43 -45 -44 0
-41 44 -46 0
41 -44 -46 0
46 -44 -41 0
41 44 46 0
-46 0
47 48 0
49 48 0
-47 -49 -48 0
-45 48 -50 0
45 -48 -50 0
50 -48 -45 0
45 48 50 0
-50 0
51 52 0
53 52 0
-51 -53 -52 0
-49 52 -54 0
49 -52 -54 0
54 -52 -49 0
49 52 54 0
-54 0
39 55 0
43 55 0
47 55 0
51 55 0
56 55 0
-57 0
-53 55 -58 0
53 -55 -58 0
58 -55 -53 0
53 55 58 0
-58 0
59 60 0
61 60 0
-59 -61 -60 0
-12 60 -62 0
12 -60 -62 0
62 -60 -12 0
12 60 62 0
-62 0
63 64 0
65 64 0
-63 -65 -64 0
-61 64 -66 0
61 -64 -66 0
66 -64 -61 0
61 64 66 0
-66 0
67 68 0
69 68 0
-67 -69 -68 0
-65 68 -70 0
65 -68 -70 0
70 -68 -65 0
65 68 70 0
-70 0
71 72 0
73 72 0
-71 -73 -72 0
-69 72 -74 0
69 -72 -74 0
74 -72 -69 0
69 72 74 0
-74 0
75 76 0
77 76 0
-75 -77 -76 0
-73 76 -78 0
73 -76 -78 0
78 -76 -73 0
73 76 78 0
-78 0
79 80 0
81 80 0
-79 -81 -80 0
-77 80 -82 0
77 -80 -82 0
82 -80 -77 0
77 80 82 0
-82 0
83 84 0
85 84 0
-83 -85 -84 0
-81 84 -86 0
81 -84 -86 0
86 -84 -81 0
81 84 86 0
-86 0
87 88 0
89 88 0
-87 -89 -88 0
-85 88 -90 0
85 -88 -90 0
90 -88 -85 0
85 88 90 0
-90 0
91 92 0
93 92 0
-91 -93 -92 0
-89 92 -94 0
89 -92 -94 0
94 -92 -89 0
89 92 94 0
-94 0
95 96 0
97 96 0
-95 -97 -96 0
-93 96 -98 0
93 -96 -98 0
98 -96 -93 0
93 96 98 0
-98 0
99 100 0
101 100 0
-99 -101 -100 0
-97 100 -102 0
97 -100 -102 0
102 -100 -97 0
97 100 102 0
-102 0
83 103 0
87 103 0
91 103 0
95 103 0
99 103 0
104 103 0
-105 0
-101 103 -106 0
101 -103 -106 0
106 -103 -101 0
101 103 106 0
-106 0
107 108 0
109 108 0
-107 -109 -108 0
-13 108 -110 0
13 -108 -110 0
110 -108 -13 0
13 108 110 0
-110 0
111 112 0
113 112 0
-111 -113 -112 0
-109 112 -114 0
109 -112 -114 0
114 -112 -109 0
109 112 114 0
-114 0
115 116 0
117 116 0
-115 -117 -116 0
-113 116 -118 0
113 -116 -118 0
118 -116 -113 0
113 116 118 0
-118 0
119 120 0
121 120 0
-119 -121 -120 0
-117 120 -122 0
117 -120 -122 0
122 -120 -117 0
117 120 122 0
-122 0
123 124 0
125 124 0
-123 -125 -124 0
-121 124 -126 0
121 -124 -126 0
126 -124 -121 0
121 124 126 0
-126 0
127 128 0
129 128 0
-127 -129 -128 0
-125 128 -130 0
125 -128 -130 0
130 -128 -125 0
125 128 130 0
-130 0
131 132 0
133 132 0
-131 -133 -132 0
-129 132 -134 0
129 -132 -134 0
134 -132 -129 0
129 132 134 0
-134 0
135 136 0
137 136 0
-135 -137 -136 0
-133 136 -138 0
133 -136 -138 0
138 -136 -133 0
133 136 138 0
-138 0
139 140 0
141 140 0
-139 -141 -140 0
-137 140 -142 0
137 -140 -142 0
142 -140 -137 0
137 140 142 0
-142 0
143 144 0
145 144 0
-143 -145 -144 0
-141 144 -146 0
141 -144 -146 0
146 -144 -141 0
141 144 146 0
-146 0
131 147 0
135 147 0
139 147 0
143 147 0
148 147 0
-149 0
-145 147 -150 0
145 -147 -150 0
150 -147 -145 0
145 147 150 0
-150 0
151 152 0
153 152 0
-151 -153 -152 0
-14 152 -154 0
14 -152 -154 0
154 -152 -14 0
14 152 154 0
-154 0
155 156 0
157 156 0
-155 -157 -156 0
-153 156 -158 0
153 -156 -158 0
158 -156 -153 0
153 156 158 0
-158 0
159 160 0
161 160 0
-159 -161 -160 0
-157 160 -162 0
157 -160 -162 0
162 -160 -157 0
157 160 162 0
-162 0
163 164 0
165 164 0
-163 -165 -164 0
-161 164 -166 0
161 -164 -166 0
166 -164 -161 0
161 164 166 0
-166 0
167 168 0
169 168 0
-167 -169 -168 0
-165 168 -170 0
165 -168 -170 0
170 -168 -165 0
165 168 170 0
-170 0
171 172 0
173 172 0
-171 -173 -172 0
-169 172 -174 0
169 -172 -174 0
174 -172 -169 0
169 172 174 0
-174 0
175 176 0
177 176 0
-175 -177 -176 0
-173 176 -178 0
173 -176 -178 0
178 -176 -173 0
173 176 178 0
-178 0
163 179 0
167 179 0
171 179 0
175 179 0
180 179 0
-181 0
-177 179 -182 0
177 -179 -182 0
182 -179 -177 0
177 179 182 0
-182 0
183 184 0
185 184 0
-183 -185 -184 0
-15 184 -186 0
15 -184 -186 0
186 -184 -15 0
15 184 186 0
-186 0
187 188 0
189 188 0
-187 -189 -188 0
-185 188 -190 0
185 -188 -190 0
190 -188 -185 0
185 188 190 0
-190 0
191 192 0
193 192 0
-191 -193 -192 0
-189 192 -194 0
189 -192 -194 0
194 -192 -189 0
189 192 194 0
-194 0
195 196 0
197 196 0
-195 -197 -196 0
-193 196 -198 0
193 -196 -198 0
198 -196 -193 0
193 196 198 0
-198 0
199 200 0
201 200 0
-199 -201 -200 0
-197 200 -202 0
197 -200 -202 0
202 -200 -197 0
197 200 202 0
-202 0
203 204 0
205 204 0
-203 -205 -204 0
-201 204 -206 0
201 -204 -206 0
206 -204 -201 0
201 204 206 0
-206 0
207 208 0
209 208 0
-207 -209 -208 0
-205 208 -210 0
205 -208 -210 0
210 -208 -205 0
205 208 210 0
-210 0
211 212 0
213 212 0
-211 -213 -212 0
-209 212 -214 0
209 -212 -214 0
214 -212 -209 0
209 212 214 0
-214 0
199 215 0
203 215 0
207 215 0
211 215 0
216 215 0
-217 0
-213 215 -218 0
213 -215 -218 0
218 -215 -213 0
213 215 218 0
-218 0
219 220 0
221 220 0
-219 -221 -220 0
-16 220 -222 0
16 -220 -222 0
222 -220 -16 0
16 220 222 0
-222 0
223 224 0
225 224 0
-223 -225 -224 0
-221 224 -226 0
221 -224 -226 0
226 -224 -221 0
221 224 226 0
-226 0
227 228 0
229 228 0
-227 -229 -228 0
-225 228 -230 0
225 -228 -230 0
230 -228 -225 0
225 228 230 0
-230 0
231 232 0
233 232 0
-231 -233 -232 0
-229 232 -234 0
229 -232 -234 0
234 -232 -229 0
229 232 234 0
-234 0
235 236 0
237 236 0
-235 -237 -236 0
-233 236 -238 0
233 -236 -238 0
238 -236 -233 0
233 236 238 0
-238 0
223 239 0
227 239 0
231 239 0
235 239 0
240 239 0
-241 0
-237 239 -242 0
237 -239 -242 0
242 -239 -237 0
237 239 242 0
-242 0
243 244 0
245 244 0
-243 -245 -244 0
-17 244 -246 0
17 -244 -246 0
246 -244 -17 0
17 244 246 0
-246 0
247 248 0
249 248 0
-247 -249 -248 0
-245 248 -250 0
245 -248 -250 0
250 -248 -245 0
245 248 250 0
-250 0
251 252 0
253 252 0
-251 -253 -252 0
-249 252 -254 0
249 -252 -254 0
254 -252 -249 0
249 252 254 0
-254 0
255 256 0
257 256 0
-255 -257 -256 0
-253 256 -258 0
253 -256 -258 0
258 -256 -253 0
253 256 258 0
-258 0
259 260 0
261 260 0
-259 -261 -260 0
-257 260 -262 0
257 -260 -262 0
262 -260 -257 0
257 260 262 0
-262 0
263 264 0
265 264 0
-263 -265 -264 0
-261 264 -266 0
261 -264 -266 0
266 -264 -261 0
261 264 266 0
-266 0
255 267 0
259 267 0
263 267 0
268 267 0
-269 0
-265 267 -270 0
265 -267 -270 0
270 -267 -265 0
265 267 270 0
-270 0
271 272 0
273 272 0
-271 -273 -272 0
-18 272 -274 0
18 -272 -274 0
274 -272 -18 0
18 272 274 0
-274 0
275 276 0
277 276 0
-275 -277 -276 0
-273 276 -278 0
273 -276 -278 0
278 -276 -273 0
273 276 278 0
-278 0
279 280 0
281 280 0
-279 -281 -280 0
-277 280 -282 0
277 -280 -282 0
282 -280 -277 0
277 280 282 0
-282 0
283 284 0
285 284 0
-283 -285 -284 0
-281 284 -286 0
281 -284 -286 0
286 -284 -281 0
281 284 286 0
-286 0
287 288 0
289 288 0
-287 -289 -288 0
-285 288 -290 0
285 -288 -290 0
290 -288 -285 0
285 288 290 0
-290 0
291 292 0
293 292 0
-291 -293 -292 0
-289 292 -294 0
289 -292 -294 0
294 -292 -289 0
289 292 294 0
-294 0
283 295 0
287 295 0
291 295 0
296 295 0
-297 0
-293 295 -298 0
293 -295 -298 0
298 -295 -293 0
293 295 298 0
-298 0
299 300 0
301 300 0
-299 -301 -300 0
-19 300 -302 0
19 -300 -302 0
302 -300 -19 0
19 300 302 0
-302 0
303 304 0
305 304 0
-303 -305 -304 0
-301 304 -306 0
301 -304 -306 0
306 -304 -301 0
301 304 306 0
-306 0
307 308 0
309 308 0
-307 -309 -308 0
-305 308 -310 0
305 -308 -310 0
310 -308 -305 0
305 308 310 0
-310 0
311 312 0
313 312 0
-311 -313 -312 0
-309 312 -314 0
309 -312 -314 0
314 -312 -309 0
309 312 314 0
-314 0
315 316 0
317 316 0
-315 -317 -316 0
-313 316 -318 0
313 -316 -318 0
318 -316 -313 0
313 316 318 0
-318 0
319 320 0
321 320 0
-319 -321 -320 0
-317 320 -322 0
317 -320 -322 0
322 -320 -317 0
317 320 322 0
-322 0
323 324 0
325 324 0
-323 -325 -324 0
-321 324 -326 0
321 -324 -326 0
326 -324 -321 0
321 324 326 0
-326 0
327 328 0
329 328 0
-327 -329 -328 0
-325 328 -330 0
325 -328 -330 0
330 -328 -325 0
325 328 330 0
-330 0
319 331 0
323 331 0
327 331 0
332 331 0
-333 0
-329 331 -334 0
329 -331 -334 0
334 -331 -329 0
329 331 334 0
-334 0
335 336 0
337 336 0
-335 -337 -336 0
-20 336 -338 0
20 -336 -338 0
338 -336 -20 0
20 336 338 0
-338 0
339 340 0
341 340 0
-339 -341 -340 0
-337 340 -342 0
337 -340 -342 0
342 -340 -337 0
337 340 342 0
-342 0
343 344 0
345 344 0
-343 -345 -344 0
-341 344 -346 0
341 -344 -346 0
346 -344 -341 0
341 344 346 0
-346 0
347 348 0
349 348 0
-347 -349 -348 0
-345 348 -350 0
345 -348 -350 0
350 -348 -345 0
345 348 350 0
-350 0
351 352 0
353 352 0
-351 -353 -352 0
-349 352 -354 0
349 -352 -354 0
354 -352 -349 0
349 352 354 0
-354 0
355 356 0
357 356 0
-355 -357 -356 0
-353 356 -358 0
353 -356 -358 0
358 -356 -353 0
353 356 358 0
-358 0
359 360 0
361 360 0
-359 -361 -360 0
-357 360 -362 0
357 -360 -362 0
362 -360 -357 0
357 360 362 0
-362 0
363 364 0
365 364 0
-363 -365 -364 0
-361 364 -366 0
361 -364 -366 0
366 -364 -361 0
361 364 366 0
-366 0
367 368 0
369 368 0
-367 -369 -368 0
-365 368 -370 0
365 -368 -370 0
370 -368 -365 0
365 368 370 0
-370 0
371 372 0
373 372 0
-371 -373 -372 0
-369 372 -374 0
369 -372 -374 0
374 -372 -369 0
369 372 374 0
-374 0
355 375 0
359 375 0
363 375 0
367 375 0
371 375 0
376 375 0
-377 0
-373 375 -378 0
373 -375 -378 0
378 -375 -373 0
373 375 378 0
-378 0
-21 379 -380 0
21 -379 -380 0
-21 -379 380 0
21 379 380 0
-380 0
-22 381 -382 0
22 -381 -382 0
-22 -381 382 0
22 381 382 0
-382 0
-23 383 -384 0
23 -383 -384 0
-23 -383 384 0
23 383 384 0
-384 0
-24 385 -386 0
24 -385 -386 0
-24 -385 386 0
24 385 386 0
-386 0
-25 387 -388 0
25 -387 -388 0
-25 -387 388 0
25 387 388 0
-388 0
-26 389 -390 0
26 -389 -390 0
-26 -389 390 0
26 389 390 0
-390 0
-27 391 -392 0
27 -391 -392 0
-27 -391 392 0
27 391 392 0
-392 0
-28 393 -394 0
28 -393 -394 0
-28 -393 394 0
28 393 394 0
-394 0
-29 395 -396 0
29 -395 -396 0
-29 -395 396 0
29 395 396 0
-396 0
-30 397 -398 0
30 -397 -398 0
-30 -397 398 0
30 397 398 0
-398 0
-31 399 -400 0
31 -399 -400 0
-31 -399 400 0
31 399 400 0
-400 0
-35 401 -402 0
35 -401 -402 0
-35 -401 402 0
35 401 402 0
-402 0
-39 403 -404 0
39 -403 -404 0
-39 -403 404 0
39 403 404 0
-404 0
-43 405 -406 0
43 -405 -406 0
-43 -405 406 0
43 405 406 0
-406 0
-47 407 -408 0
47 -407 -408 0
-47 -407 408 0
47 407 408 0
-408 0
-51 409 -410 0
51 -409 -410 0
-51 -409 410 0
51 409 410 0
-410 0
-56 411 -412 0
56 -411 -412 0
-56 -411 412 0
56 411 412 0
-412 0
-59 413 -414 0
59 -413 -414 0
-59 -413 414 0
59 413 414 0
-414 0
-63 415 -416 0
63 -415 -416 0
-63 -415 416 0
63 415 416 0
-416 0
-67 417 -418 0
67 -417 -418 0
-67 -417 418 0
67 417 418 0
-418 0
-71 419 -420 0
71 -419 -420 0
-71 -419 420 0
71 419 420 0
-420 0
-75 421 -422 0
75 -421 -422 0
-75 -421 422 0
75 421 422 0
-422 0
-79 423 -424 0
79 -423 -424 0
-79 -423 424 0
79 423 424 0
-424 0
-83 425 -426 0
83 -425 -426 0
-83 -425 426 0
83 425 426 0
-426 0
-87 427 -428 0
87 -427 -428 0
-87 -427 428 0
87 427 428 0
-428 0
-91 429 -430 0
91 -429 -430 0
-91 -429 430 0
91 429 430 0
-430 0
-95 431 -432 0
95 -431 -432 0
-95 -431 432 0
95 431 432 0
-432 0
-99 433 -434 0
99 -433 -434 0
-99 -433 434 0
99 433 434 0
-434 0
-104 435 -436 0
104 -435 -436 0
-104 -435 436 0
104 435 436 0
-436 0
-107 437 -438 0
107 -437 -438 0
-107 -437 438 0
107 437 438 0
-438 0
-111 439 -440 0
111 -439 -440 0
-111 -439 440 0
111 439 440 0
-440 0
-115 441 -442 0
115 -441 -442 0
-115 -441 442 0
115 441 442 0
-442 0
-119 443 -444 0
119 -443 -444 0
-119 -443 444 0
119 443 444 0
-444 0
-123 445 -446 0
123 -445 -446 0
-123 -445 446 0
123 445 446 0
-446 0
-127 447 -448 0
127 -447 -448 0
-127 -447 448 0
127 447 448 0
-448 0
-131 449 -450 0
131 -449 -450 0
-131 -449 450 0
131 449 450 0
-450 0
-135 451 -452 0
135 -451 -452 0
-135 -451 452 0
135 451 452 0
-452 0
-139 453 -454 0
139 -453 -454 0
-139 -453 454 0
139 453 454 0
-454 0
-143 455 -456 0
143 -455 -456 0
-143 -455 456 0
143 455 456 0
-456 0
-148 457 -458 0
148 -457 -458 0
-148 -457 458 0
148 457 458 0
-458 0
-151 459 -460 0
151 -459 -460 0
-151 -459 460 0
151 459 460 0
-460 0
-155 461 -462 0
155 -461 -462 0
-155 -461 462 0
155 461 462 0
-462 0
-159 463 -464 0
159 -463 -464 0
-159 -463 464 0
159 463 464 0
-464 0
-163 465 -466 0
163 -465 -466 0
-163 -465 466 0
163 465 466 0
-466 0
-167 467 -468 0
167 -467 -468 0
-167 -467 468 0
167 467 468 0
-468 0
-171 469 -470 0
171 -469 -470 0
-171 -469 470 0
171 469 470 0
-470 0
-175 471 -472 0
175 -471 -472 0
-175 -471 472 0
175 471 472 0
-472 0
-180 473 -474 0
180 -473 -474 0
-180 -473 474 0
180 473 474 0
-474 0
-183 475 -476 0
183 -475 -476 0
-183 -475 476 0
183 475 476 0
-476 0
-187 477 -478 0
187 -477 -478 0
-187 -477 478 0
187 477 478 0
-478 0
-191 479 -480 0
191 -479 -480 0
-191 -479 480 0
191 479 480 0
-480 0
-195 481 -482 0
195 -481 -482 0
-195 -481 482 0
195 481 482 0
-482 0
-199 483 -484 0
199 -483 -484 0
-199 -483 484 0
199 483 484 0
-484 0
-203 485 -486 0
203 -485 -486 0
-203 -485 486 0
203 485 486 0
-486 0
-207 487 -488 0
207 -487 -488 0
-207 -487 488 0
207 487 488 0
-488 0
-211 489 -490 0
211 -489 -490 0
-211 -489 490 0
211 489 490 0
-490 0
-216 491 -492 0
216 -491 -492 0
-216 -491 492 0
216 491 492 0
-492 0
-219 493 -494 0
219 -493 -494 0
-219 -493 494 0
219 493 494 0
-494 0
-223 495 -496 0
223 -495 -496 0
-223 -495 496 0
223 495 496 0
-496 0
-227 497 -498 0
227 -497 -498 0
-227 -497 498 0
227 497 498 0
-498 0
-231 499 -500 0
231 -499 -500 0
-231 -499 500 0
231 499 500 0
-500 0
-235 501 -502 0
235 -501 -502 0
-235 -501 502 0
235 501 502 0
-502 0
-240 503 -504 0
240 -503 -504 0
-240 -503 504 0
240 503 504 0
-504 0
-243 505 -506 0
243 -505 -506 0
-243 -505 506 0
243 505 506 0
-506 0
-247 507 -508 0
247 -507 -508 0
-247 -507 508 0
247 507 508 0
-508 0
-251 509 -510 0
251 -509 -510 0
-251 -509 510 0
251 509 510 0
-510 0
-255 511 -512 0
255 -511 -512 0
-255 -511 512 0
255 511 512 0
-512 0
-259 513 -514 0
259 -513 -514 0
-259 -513 514 0
259 513 514 0
-514 0
-263 515 -516 0
263 -515 -516 0
-263 -515 516 0
263 515 516 0
-516 0
-268 517 -518 0
268 -517 -518 0
-268 -517 518 0
268 517 518 0
-518 0
-271 519 -520 0
271 -519 -520 0
-271 -519 520 0
271 519 520 0
-520 0
-275 521 -522 0
275 -521 -522 0
-275 -521 522 0
275 521 522 0
-522 0
-279 523 -524 0
279 -523 -524 0
-279 -523 524 0
279 523 524 0
-524 0
-283 525 -526 0
283 -525 -526 0
-283 -525 526 0
283 525 526 0
-526 0
-287 527 -528 0
287 -527 -528 0
-287 -527 528 0
287 527 528 0
-528 0
-291 529 -530 0
291 -529 -530 0
-291 -529 530 0
291 529 530 0
-530 0
-296 531 -532 0
296 -531 -532 0
-296 -531 532 0
296 531 532 0
-532 0
-299 533 -534 0
299 -533 -534 0
-299 -533 534 0
299 533 534 0
-534 0
-303 535 -536 0
303 -535 -536 0
-303 -535 536 0
303 535 536 0
-536 0
-307 537 -538 0
307 -537 -538 0
-307 -537 538 0
307 537 538 0
-538 0
-311 539 -540 0
311 -539 -540 0
-311 -539 540 0
311 539 540 0
-540 0
-315 541 -542 0
315 -541 -542 0
-315 -541 542 0
315 541 542 0
-542 0
-319 543 -544 0
319 -543 -544 0
-319 -543 544 0
319 543 544 0
-544 0
-323 545 -546 0
323 -545 -546 0
-323 -545 546 0
323 545 546 0
-546 0
-327 547 -548 0
327 -547 -548 0
-327 -547 548 0
327 547 548 0
-548 0
-332 549 -550 0
332 -549 -550 0
-332 -549 550 0
332 549 550 0
-550 0
-335 551 -552 0
335 -551 -552 0
-335 -551 552 0
335 551 552 0
-552 0
-339 553 -554 0
339 -553 -554 0
-339 -553 554 0
339 553 554 0
-554 0
-343 555 -556 0
343 -555 -556 0
-343 -555 556 0
343 555 556 0
-556 0
-347 557 -558 0
347 -557 -558 0
-347 -557 558 0
347 557 558 0
-558 0
-351 559 -560 0
351 -559 -560 0
-351 -559 560 0
351 559 560 0
-560 0
-355 561 -562 0
355 -561 -562 0
-355 -561 562 0
355 561 562 0
-562 0
-359 563 -564 0
359 -563 -564 0
-359 -563 564 0
359 563 564 0
-564 0
-363 565 -566 0
363 -565 -566 0
-363 -565 566 0
363 565 566 0
-566 0
-367 567 -568 0
367 -567 -568 0
-367 -567 568 0
367 567 568 0
-568 0
-371 569 -570 0
371 -569 -570 0
-371 -569 570 0
371 569 570 0
-570 0
-376 571 -572 0
376 -571 -572 0
-376 -571 572 0
376 571 572 0
-572 0
-573 -379 0
-573 -381 0
-573 -383 0
-573 -385 0
-573 -387 0
-573 -389 0
-573 -391 0
-573 -393 0
-573 -395 0
-573 -397 0
399 -573 0
401 -573 0
-573 -403 0
-573 -405 0
-573 -407 0
409 -573 0
-573 -411 0
-573 -413 0
-573 -415 0
417 -573 0
419 -573 0
-573 -421 0
423 -573 0
425 -573 0
-573 -427 0
429 -573 0
431 -573 0
-573 -433 0
-573 -435 0
-573 -437 0
-573 -439 0
441 -573 0
-573 -443 0
-573 -445 0
447 -573 0
449 -573 0
-573 -451 0
453 -573 0
-573 -455 0
-573 -457 0
459 -573 0
461 -573 0
463 -573 0
-573 -465 0
-573 -467 0
-573 -469 0
471 -573 0
-573 -473 0
-573 -475 0
-573 -477 0
479 -573 0
481 -573 0
483 -573 0
-573 -485 0
-573 -487 0
-573 -489 0
-573 -491 0
493 -573 0
495 -573 0
497 -573 0
499 -573 0
501 -573 0
-573 -503 0
505 -573 0
-573 -507 0
509 -573 0
-573 -511 0
513 -573 0
515 -573 0
-573 -517 0
519 -573 0
521 -573 0
523 -573 0
525 -573 0
527 -573 0
-573 -529 0
-573 -531 0
533 -573 0
535 -573 0
537 -573 0
539 -573 0
-573 -541 0
543 -573 0
-573 -545 0
-573 -547 0
549 -573 0
551 -573 0
553 -573 0
555 -573 0
557 -573 0
-573 -559 0
-573 -561 0
563 -573 0
-573 -565 0
567 -573 0
569 -573 0
571 -573 0
573 0
-574 0
-575 0
-576 0
-577 0
-578 0
-579 0
-580 0
-581 0
